Break = 240;
End = 600;
P=10;
N=10;
X=1;
Y=5;
H=[1,2,3,4,5,6,7,8,9,10];
Len=[55,55,90,120,135,140,60,90,105,140];

I=[|4,0,5,4,5,5,4,5,3,1|
    5,0,2,2,1,4,5,0,3,1|
    3,4,1,0,5,1,5,3,5,2|
    1,4,5,5,1,1,4,1,2,3|
    5,5,3,2,2,2,2,2,2,4|
    0,0,0,5,0,3,1,0,2,4|
    2,3,0,0,0,1,2,1,4,4|
    4,0,1,1,1,0,2,1,5,3|
    4,5,4,3,5,3,2,0,3,1|
    2,2,2,3,3,4,0,2,1,4|];
    
Shortest = 40;
